Reading model...
...model read.
creating competitive generators file...
...competitive generators recorded.
Loading data...
.. real-time data read.
Compiling instance...
...instance created.
Creating Offer Mitigation (model will solve as dispatch if TRUE)...
NOTE: storage offers will not be mitigated
...storage offer mitigation file created
Converting model to MPEC...
...converted
NOTE: initial MIP solve with only storage competitive to get feasible solution
Solving...

Welcome to IBM(R) ILOG(R) CPLEX(R) Interactive Optimizer 12.9.0.0
  with Simplex, Mixed Integer & Barrier Optimizers
5725-A06 5725-A29 5724-Y48 5724-Y49 5724-Y54 5724-Y55 5655-Y21
Copyright IBM Corp. 1988, 2019.  All Rights Reserved.

Type 'help' for a list of available commands.
Type 'help' followed by a command name for more
information on commands.

CPLEX> Logfile 'cplex.log' closed.
Logfile 'C:\Users\llavin\Desktop\test826\logs\tmpdsliex3_.cplex.log' open.
CPLEX> New value for parallel optimization mode: -1
CPLEX> New value for mixed integer optimality gap tolerance: 0.01
CPLEX> New value for feasibility tolerance: 1e-09
CPLEX> New value for deterministic time limit in ticks: 100000
CPLEX> Problem 'C:\Users\llavin\Desktop\test826\logs\tmpcf5c7ae6.pyomo.lp' read.
Read time = 0.52 sec. (28.52 ticks)
CPLEX> Problem name         : C:\Users\llavin\Desktop\test826\logs\tmpcf5c7ae6.pyomo.lp
Objective sense      : Maximize
Variables            :  107781  [Nneg: 1,  Box: 44056,  Free: 8928,
                                 Binary: 54796]
Objective nonzeros   :   17377
Linear constraints   :  246901  [Less: 82866,  Greater: 118424,  Equal: 45611]
  Nonzeros           :  618077
  RHS nonzeros       :  134881

Variables            : Min LB: -5000.000        Max UB: 1000000.       
Objective nonzeros   : Min   : 0.02500000       Max   : 208.3333       
Linear constraints   :
  Nonzeros           : Min   : 0.02500000       Max   : 1000000.       
  RHS nonzeros       : Min   : 0.02500000       Max   : 1000000.       
CPLEX> CPXPARAM_Parallel                                -1
CPXPARAM_Simplex_Tolerances_Feasibility          1.0000000000000001e-09
CPXPARAM_DetTimeLimit                            100000
CPXPARAM_MIP_Tolerances_MIPGap                   0.01
Tried aggregator 3 times.
MIP Presolve eliminated 181573 rows and 41603 columns.
MIP Presolve added 6048 rows and 0 columns.
MIP Presolve modified 50506 coefficients.
Aggregator did 25843 substitutions.
Reduced MIP has 45533 rows, 38703 columns, and 151842 nonzeros.
Reduced MIP has 15230 binaries, 0 generals, 0 SOSs, and 0 indicators.
Presolve time = 0.63 sec. (392.60 ticks)
Probing fixed 861 vars, tightened 8685 bounds.
Probing time = 0.34 sec. (14.48 ticks)
Tried aggregator 2 times.
MIP Presolve eliminated 1914 rows and 1722 columns.
MIP Presolve modified 5361 coefficients.
Aggregator did 48 substitutions.
Reduced MIP has 43571 rows, 36933 columns, and 146148 nonzeros.
Reduced MIP has 14369 binaries, 0 generals, 0 SOSs, and 0 indicators.
Presolve time = 0.25 sec. (218.05 ticks)
Probing fixed 0 vars, tightened 427 bounds.
Probing time = 0.48 sec. (15.56 ticks)
Clique table members: 86583.
MIP emphasis: balance optimality and feasibility.
MIP search method: dynamic search.
Parallel mode: opportunistic, using up to 32 threads.
Root relaxation solution time = 1.11 sec. (1714.82 ticks)

        Nodes                                         Cuts/
   Node  Left     Objective  IInf  Best Integer    Best Bound    ItCnt     Gap

      0     0     1969.4621   368                   1969.4621    10751         
*     0     0      integral     0     1969.4621     1969.4621    10751    0.00%
Elapsed time = 4.81 sec. (4203.01 ticks, tree = 0.01 MB, solutions = 1)

Root node processing (before b&c):
  Real time             =    4.83 sec. (4206.87 ticks)
Parallel b&c, 32 threads:
  Real time             =    0.00 sec. (0.00 ticks)
  Sync time (average)   =    0.00 sec.
  Wait time (average)   =    0.00 sec.
                          ------------
Total (root+branch&cut) =    4.83 sec. (4206.87 ticks)

Solution pool: 1 solution saved.

MIP - Integer optimal solution:  Objective =  1.9694620689e+03
Solution time =    4.86 sec.  Iterations = 10751  Nodes = 0
Deterministic time = 4207.18 ticks  (865.68 ticks/sec)

CPLEX> Incumbent solution written to file 'C:\Users\llavin\Desktop\test826\logs\tmpvoy3vj6k.cplex.sol'.
CPLEX> NOTE: no warmstart specified for MIP iteration, default behavior is true
NOTE: resolving with all competitive generators using storage-only solution to warmstart
Solving...

Welcome to IBM(R) ILOG(R) CPLEX(R) Interactive Optimizer 12.9.0.0
  with Simplex, Mixed Integer & Barrier Optimizers
5725-A06 5725-A29 5724-Y48 5724-Y49 5724-Y54 5724-Y55 5655-Y21
Copyright IBM Corp. 1988, 2019.  All Rights Reserved.

Type 'help' for a list of available commands.
Type 'help' followed by a command name for more
information on commands.

CPLEX> Logfile 'cplex.log' closed.
Logfile 'C:\Users\llavin\Desktop\test826\logs\tmpbmy9sk43.cplex.log' open.
CPLEX> New value for parallel optimization mode: -1
CPLEX> New value for mixed integer optimality gap tolerance: 0.01
CPLEX> New value for feasibility tolerance: 1e-09
CPLEX> New value for deterministic time limit in ticks: 100000
CPLEX> Problem 'C:\Users\llavin\Desktop\test826\logs\tmp7f80agan.pyomo.lp' read.
Read time = 0.53 sec. (28.56 ticks)
CPLEX> MIP start file 'C:\Users\llavin\Desktop\test826\logs\tmpshanh_4c.cplex.mst' read.
CPLEX> Problem name         : C:\Users\llavin\Desktop\test826\logs\tmp7f80agan.pyomo.lp
Objective sense      : Maximize
Variables            :  109221  [Nneg: 1,  Box: 45496,  Free: 8928,
                                 Binary: 54796]
Objective nonzeros   :   18769
Linear constraints   :  246901  [Less: 82866,  Greater: 118424,  Equal: 45611]
  Nonzeros           :  618077
  RHS nonzeros       :  134881

Variables            : Min LB: -5000.000        Max UB: 1000000.       
Objective nonzeros   : Min   : 0.02500000       Max   : 208.3333       
Linear constraints   :
  Nonzeros           : Min   : 0.02500000       Max   : 1000000.       
  RHS nonzeros       : Min   : 0.02500000       Max   : 1000000.       
CPLEX> CPXPARAM_Parallel                                -1
CPXPARAM_Simplex_Tolerances_Feasibility          1.0000000000000001e-09
CPXPARAM_DetTimeLimit                            100000
CPXPARAM_MIP_Tolerances_MIPGap                   0.01
Warning:  No solution found from 1 MIP starts.
Retaining values of one MIP start for possible repair.
Tried aggregator 3 times.
MIP Presolve eliminated 181573 rows and 43043 columns.
MIP Presolve added 6048 rows and 0 columns.
MIP Presolve modified 50506 coefficients.
Aggregator did 25843 substitutions.
Reduced MIP has 45533 rows, 38703 columns, and 151842 nonzeros.
Reduced MIP has 15230 binaries, 0 generals, 0 SOSs, and 0 indicators.
Presolve time = 0.66 sec. (393.34 ticks)
Probing fixed 861 vars, tightened 8685 bounds.
Probing time = 0.38 sec. (14.48 ticks)
Tried aggregator 2 times.
MIP Presolve eliminated 1914 rows and 1722 columns.
MIP Presolve modified 5361 coefficients.
Aggregator did 48 substitutions.
Reduced MIP has 43571 rows, 36933 columns, and 146148 nonzeros.
Reduced MIP has 14369 binaries, 0 generals, 0 SOSs, and 0 indicators.
Presolve time = 0.23 sec. (218.05 ticks)
Probing fixed 0 vars, tightened 427 bounds.
Probing time = 0.52 sec. (15.56 ticks)
Clique table members: 86583.
MIP emphasis: balance optimality and feasibility.
MIP search method: dynamic search.
Parallel mode: opportunistic, using up to 32 threads.
Root relaxation solution time = 1.14 sec. (1740.67 ticks)

        Nodes                                         Cuts/
   Node  Left     Objective  IInf  Best Integer    Best Bound    ItCnt     Gap

      0     0     3411.3723   390                   3411.3723    10728         
      0     0     3411.3723    46                Flowcuts: 90    10743         
      0     0     3411.3723    46                    Cuts: 35    10754         
      0     0     3411.3723    39                    Cuts: 13    10767         
      0     0     3411.3723    40                    Cuts: 13    10770         
Repair heuristic found nothing.
*     0+    0                         3407.4036     3411.3723             0.12%

Cover cuts applied:  3
Flow cuts applied:  48

Root node processing (before b&c):
  Real time             =   10.50 sec. (9508.05 ticks)
Parallel b&c, 32 threads:
  Real time             =    0.00 sec. (0.00 ticks)
  Sync time (average)   =    0.00 sec.
  Wait time (average)   =    0.00 sec.
                          ------------
Total (root+branch&cut) =   10.50 sec. (9508.05 ticks)

Solution pool: 1 solution saved.

MIP - Integer optimal, tolerance (0.01/1e-06):  Objective =  3.4074036468e+03
Current MIP best bound =  3.4100394311e+03 (gap = 2.63578, 0.08%)
Solution time =   10.53 sec.  Iterations = 10770  Nodes = 0 (1)
Deterministic time = 9508.37 ticks  (902.81 ticks/sec)

CPLEX> Incumbent solution written to file 'C:\Users\llavin\Desktop\test826\logs\tmp_w5q_kof.cplex.sol'.
CPLEX> Exporting results... 
